\ Model warehouse_inventory
\ LP format - for model browsing. Use MPS format to capture full model detail.
Minimize
  2811 INV1 + 1314 ORD1 + 39 SLACK1 + 2811 INV2 + 1314 ORD2 + 39 SLACK2
   + 2811 INV3 + 1314 ORD3 + 39 SLACK3 + 2811 INV4 + 1314 ORD4 + 39 SLACK4
   + 2811 INV5 + 1314 ORD5 + 39 SLACK5 + 2811 INV6 + 1314 ORD6 + 39 SLACK6
Subject To
 INIT_INV: INV1 = 54
 DEMAND1: 150 INV1 - 100 ORD1 + SLACK1 >= 11461
 SLACK_LIMIT1: - 20 INV1 + SLACK1 <= 0
 DEMAND2: 150 INV2 - 100 ORD2 + SLACK2 >= 8841
 SLACK_LIMIT2: - 20 INV2 + SLACK2 <= 0
 DEMAND3: 150 INV3 - 100 ORD3 + SLACK3 >= 12305
 SLACK_LIMIT3: - 20 INV3 + SLACK3 <= 0
 DEMAND4: 150 INV4 - 100 ORD4 + SLACK4 >= 8220
 SLACK_LIMIT4: - 20 INV4 + SLACK4 <= 0
 DEMAND5: 150 INV5 - 100 ORD5 + SLACK5 >= 9176
 SLACK_LIMIT5: - 20 INV5 + SLACK5 <= 0
 DEMAND6: 150 INV6 - 100 ORD6 + SLACK6 >= 8165
 SLACK_LIMIT6: - 20 INV6 + SLACK6 <= 0
 INVENTORY_TRANSITION2: 0.86 INV1 + ORD1 - INV2 = 0
 INVENTORY_TRANSITION3: 0.86 INV2 + ORD2 - INV3 = 0
 INVENTORY_TRANSITION4: 0.86 INV3 + ORD3 - INV4 = 0
 INVENTORY_TRANSITION5: 0.86 INV4 + ORD4 - INV5 = 0
 INVENTORY_TRANSITION6: 0.86 INV5 + ORD5 - INV6 = 0
Bounds
 ORD1 <= 24
 54 <= INV2 <= 84
 ORD2 <= 24
 54 <= INV3 <= 84
 ORD3 <= 24
 54 <= INV4 <= 84
 ORD4 <= 24
 54 <= INV5 <= 84
 ORD5 <= 24
 54 <= INV6 <= 84
 ORD6 <= 24
Generals
 INV1 ORD1 INV2 ORD2 INV3 ORD3 INV4 ORD4 INV5 ORD5 INV6 ORD6
End
